
Gurobi 11.0.0 (linux64) logging started Sun Mar 10 21:35:36 2024

Set parameter LogFile to value "gurobi_out/log/Mar_10_gemver_10_10.log"
Gurobi Optimizer version 11.0.0 build v11.0.0rc2 (linux64 - "CentOS Linux 7 (Core)")

CPU model: Intel Xeon E3-12xx v2 (Ivy Bridge), instruction set [SSE2|AVX]
Thread count: 24 physical cores, 24 logical processors, using up to 24 threads

Optimize a model with 3587 rows, 2890 columns and 9136 nonzeros
Model fingerprint: 0x7a5d5384
Variable types: 2058 continuous, 832 integer (416 binary)
Coefficient statistics:
  Matrix range     [1e+00, 1e+02]
  Objective range  [1e-05, 1e-01]
  Bounds range     [1e+00, 1e+00]
  RHS range        [1e+00, 1e+01]
Found heuristic solution: objective -0.0003000
Presolve removed 2360 rows and 1655 columns
Presolve time: 0.02s
Presolved: 1227 rows, 1235 columns, 3732 nonzeros
Found heuristic solution: objective 0.1108111
Variable types: 722 continuous, 513 integer (164 binary)

Root relaxation: objective 4.439428e-01, 611 iterations, 0.01 seconds (0.01 work units)

    Nodes    |    Current Node    |     Objective Bounds      |     Work
 Expl Unexpl |  Obj  Depth IntInf | Incumbent    BestBd   Gap | It/Node Time

     0     0    0.44394    0   14    0.11081    0.44394   301%     -    0s
H    0     0                       0.2219222    0.44394   100%     -    0s
H    0     0                       0.2219422    0.44394   100%     -    0s
     0     0    0.44393    0    9    0.22194    0.44393   100%     -    0s
H    0     0                       0.4439144    0.44393  0.00%     -    0s

Cutting planes:
  Gomory: 8
  Implied bound: 1
  MIR: 8

Explored 1 nodes (736 simplex iterations) in 0.12 seconds (0.04 work units)
Thread count was 24 (of 24 available processors)

Solution count 5: 0.443914 0.221942 0.221922 ... -0.0003

Optimal solution found (tolerance 1.00e-04)
Best objective 4.439144444444e-01, best bound 4.439251824444e-01, gap 0.0024%
Warning: linear constraint 855 and linear constraint 856 have the same name "PathConstr3_nopl"

Gurobi 11.0.0 (linux64) logging started Sun Mar 10 21:37:42 2024

Set parameter LogFile to value "gurobi_out/log/Mar_10_gemver_10_10.log"
Gurobi Optimizer version 11.0.0 build v11.0.0rc2 (linux64 - "CentOS Linux 7 (Core)")

CPU model: Intel Xeon E3-12xx v2 (Ivy Bridge), instruction set [SSE2|AVX]
Thread count: 24 physical cores, 24 logical processors, using up to 24 threads

Optimize a model with 3587 rows, 2890 columns and 9136 nonzeros
Model fingerprint: 0x2cacd05a
Variable types: 2058 continuous, 832 integer (416 binary)
Coefficient statistics:
  Matrix range     [1e+00, 1e+02]
  Objective range  [1e-05, 1e-01]
  Bounds range     [1e-12, 1e+00]
  RHS range        [1e+00, 1e+01]
Found heuristic solution: objective -0.0003000
Presolve removed 2360 rows and 1655 columns
Presolve time: 0.02s
Presolved: 1227 rows, 1235 columns, 3732 nonzeros
Found heuristic solution: objective 0.1108111
Variable types: 722 continuous, 513 integer (164 binary)

Root relaxation: objective 4.439428e-01, 611 iterations, 0.01 seconds (0.01 work units)

    Nodes    |    Current Node    |     Objective Bounds      |     Work
 Expl Unexpl |  Obj  Depth IntInf | Incumbent    BestBd   Gap | It/Node Time

     0     0    0.44394    0   14    0.11081    0.44394   301%     -    0s
H    0     0                       0.2219222    0.44394   100%     -    0s
H    0     0                       0.2219422    0.44394   100%     -    0s
     0     0    0.44393    0    9    0.22194    0.44393   100%     -    0s
H    0     0                       0.4439144    0.44393  0.00%     -    0s

Cutting planes:
  Gomory: 8
  Implied bound: 1
  MIR: 8

Explored 1 nodes (736 simplex iterations) in 0.12 seconds (0.04 work units)
Thread count was 24 (of 24 available processors)

Solution count 5: 0.443914 0.221942 0.221922 ... -0.0003

Optimal solution found (tolerance 1.00e-04)
Best objective 4.439144444450e-01, best bound 4.439251824447e-01, gap 0.0024%
Warning: linear constraint 855 and linear constraint 856 have the same name "PathConstr3_nopl"

Gurobi 11.0.0 (linux64) logging started Sun Mar 10 21:38:04 2024

Set parameter LogFile to value "gurobi_out/log/Mar_10_gemver_10_10.log"
Gurobi Optimizer version 11.0.0 build v11.0.0rc2 (linux64 - "CentOS Linux 7 (Core)")

CPU model: Intel Xeon E3-12xx v2 (Ivy Bridge), instruction set [SSE2|AVX]
Thread count: 24 physical cores, 24 logical processors, using up to 24 threads

Optimize a model with 3587 rows, 2890 columns and 9136 nonzeros
Model fingerprint: 0x9ba674fe
Variable types: 2058 continuous, 832 integer (416 binary)
Coefficient statistics:
  Matrix range     [1e+00, 1e+02]
  Objective range  [1e-05, 1e-01]
  Bounds range     [1e-07, 1e+00]
  RHS range        [1e+00, 1e+01]
Found heuristic solution: objective -0.0002999
Presolve removed 2360 rows and 1655 columns
Presolve time: 0.02s
Presolved: 1227 rows, 1235 columns, 3732 nonzeros
Found heuristic solution: objective 0.1108112
Variable types: 722 continuous, 513 integer (164 binary)

Root relaxation: objective 4.439428e-01, 611 iterations, 0.01 seconds (0.01 work units)

    Nodes    |    Current Node    |     Objective Bounds      |     Work
 Expl Unexpl |  Obj  Depth IntInf | Incumbent    BestBd   Gap | It/Node Time

     0     0    0.44394    0   14    0.11081    0.44394   301%     -    0s
H    0     0                       0.2219222    0.44394   100%     -    0s
H    0     0                       0.2219422    0.44394   100%     -    0s
     0     0    0.44393    0    9    0.22194    0.44393   100%     -    0s
H    0     0                       0.4439145    0.44393  0.00%     -    0s

Cutting planes:
  Gomory: 8
  Implied bound: 1
  MIR: 7

Explored 1 nodes (720 simplex iterations) in 0.12 seconds (0.04 work units)
Thread count was 24 (of 24 available processors)

Solution count 6: 0.443914 0.443914 0.221942 ... -0.0002999

Optimal solution found (tolerance 1.00e-04)
Best objective 4.439144670000e-01, best bound 4.439252046667e-01, gap 0.0024%
Warning: linear constraint 855 and linear constraint 856 have the same name "PathConstr3_nopl"

Gurobi 11.0.0 (linux64) logging started Sun Mar 10 21:38:24 2024

Set parameter LogFile to value "gurobi_out/log/Mar_10_gemver_10_10.log"
Gurobi Optimizer version 11.0.0 build v11.0.0rc2 (linux64 - "CentOS Linux 7 (Core)")

CPU model: Intel Xeon E3-12xx v2 (Ivy Bridge), instruction set [SSE2|AVX]
Thread count: 24 physical cores, 24 logical processors, using up to 24 threads

Optimize a model with 3587 rows, 2890 columns and 9136 nonzeros
Model fingerprint: 0x13e2371b
Variable types: 2058 continuous, 832 integer (416 binary)
Coefficient statistics:
  Matrix range     [1e+00, 1e+02]
  Objective range  [1e-05, 1e-01]
  Bounds range     [1e-03, 1e+00]
  RHS range        [1e+00, 1e+01]
Presolve removed 1939 rows and 1374 columns
Presolve time: 0.01s

Explored 0 nodes (0 simplex iterations) in 0.01 seconds (0.01 work units)
Thread count was 1 (of 24 available processors)

Solution count 0
No other solutions better than -1e+100

Model is infeasible
Best objective -, best bound -, gap -
Warning: linear constraint 855 and linear constraint 856 have the same name "PathConstr3_nopl"

Gurobi 11.0.0 (linux64) logging started Sun Mar 10 21:38:39 2024

Set parameter LogFile to value "gurobi_out/log/Mar_10_gemver_10_10.log"
Gurobi Optimizer version 11.0.0 build v11.0.0rc2 (linux64 - "CentOS Linux 7 (Core)")

CPU model: Intel Xeon E3-12xx v2 (Ivy Bridge), instruction set [SSE2|AVX]
Thread count: 24 physical cores, 24 logical processors, using up to 24 threads

Optimize a model with 3587 rows, 2890 columns and 9136 nonzeros
Model fingerprint: 0xdc4e2454
Variable types: 2058 continuous, 832 integer (416 binary)
Coefficient statistics:
  Matrix range     [1e+00, 1e+02]
  Objective range  [1e-05, 1e-01]
  Bounds range     [1e-05, 1e+00]
  RHS range        [1e+00, 1e+01]
Presolve removed 2015 rows and 1440 columns
Presolve time: 0.01s

Explored 0 nodes (0 simplex iterations) in 0.01 seconds (0.01 work units)
Thread count was 1 (of 24 available processors)

Solution count 0
No other solutions better than -1e+100

Model is infeasible
Best objective -, best bound -, gap -
Warning: linear constraint 855 and linear constraint 856 have the same name "PathConstr3_nopl"
